Route #1: 21 23 37 33 55
Route #2: 57 32 44 34 11 47 51 4
Route #3: 19 42 3 39 14 29 56
Route #4: 31 24 7 60 54 61
Route #5: 46 53 25 40
Route #6: 15 18 5 59 10 52
Route #7: 49 8 35 27 6 36
Route #8: 38 28 58 22 17 62 50
Route #9: 20 26 13 30 43 48
Route #10: 16 41 2 12 9 1 45
cost 1588.341796875